10
23
28
310
505
129
26
23
111
47
43
12
85
48
186
17
60
26
14
37
49
64
0
191
537
40
11
80
218
23
31
42
19
175
0
44
109
28
526
29
508
39
14
41
154
0
19
55
48
395
591
494
47
117
10
56
45
12
27
58
24
35
0
10
17
18
192
0
8
1266
63
9
24
53
90
1234
0
0
9
1245
20
0
78
75
15
36
1172
16
14
11
9
479
162
585
23
0
0
213
97
18
